NAME : 10_3_3_1_(31).dat
COMMENT : Henke, Speranza, Wäscher, 2015
TYPE : MCVRP
DIMENSION : 11
EDGE_WEIGHT_TYPE : DISTANCE_MATRIX
CAPACITY : 1000
VEHICLES : 2
PRODUCT TYPES : 3
COMPARTMENTS : 3
NODE_COORD_SECTION
1 50 50
2 29.97 67.93
3 23.73 82.39
4 74.45 85.33
5 21.92 17.25
6 81.5 72.94
7 54.4 96.72
8 38.95 59.27
9 6.54 0.65
10 43.38 90.27
11 48.17 71.09
DEMAND_SECTION
1 0 0 0
2 65 0 0
3 27 0 0
4 0 0 258
5 0 55 0
6 96 0 0
7 0 332 0
8 140 0 0
9 56 0 0
10 128 0 0
11 134 0 0
DEPOT_SECTION
1
EOF